(set-option :timeout 5000)
(declare-fun tvw_arr (Int) Int)
(declare-fun tvw_n () Int)
(assert (<  0   (-  tvw_n   1 ) ) )
(assert (<  0   (-  (-  tvw_n   0 )   1 ) ) )
(assert (>  (tvw_arr (+  (+  (+  (+  (+  (+  0   0 )   0 )   0 )   0 )   0 )   0 ) )   (tvw_arr (+  (+  (+  (+  (+  (+  (+  0   1 )   0 )   0 )   0 )   0 )   0 )   0 ) ) ) )
(assert (not  (<  1   (-  (-  tvw_n   0 )   1 ) ) ) )
(assert (not  (<  1   (-  tvw_n   1 ) ) ) )
(check-sat)(get-model)
